100
32
13
28
7
16
29
27
27
6
8
11
13
17
10
9
1
11
1
17
5
1
18
3
2
4
1
1
1
1
3
3
3
18
1
1
2
1
20
17
2
1
5
1
1
3
1
2
1
1
3
1
2
17
2
3
2
1
2
2
4
1
1
3
3
19
1
18
1
2
4
3
1
1
3
4
2
1
2
18
2
1
2
9
1
2
2
1
3
1
2
2
1
1
2
1
2
1
2
17
2
2